100
    1    45    45
    2    49    49
    3    43    43
    4    46    46
    5    17    17
    6    29    29
    7    50    50
    8    15    15
    9    41    41
   10    23    23
   11    41    41
   12     2     2
   13    20    20
   14    49    49
   15    31    31
   16     1     1
   17    46    46
   18    46    46
   19     9     9
   20     4     4
   21     7     7
   22     4     4
   23    50    50
   24    20    20
   25    43    43
   26     8     8
   27    11    11
   28    27    27
   29     6     6
   30    48    48
   31     4     4
   32    17    17
   33    10    10
   34    11    11
   35    25    25
   36    15    15
   37     8     8
   38    20    20
   39     7     7
   40    29    29
   41    14    14
   42    41    41
   43    13    13
   44     4     4
   45     1     1
   46     1     1
   47    46    46
   48    43    43
   49    50    50
   50    46    46
   51    21    21
   52    44    44
   53    45    45
   54    23    23
   55    17    17
   56    21    21
   57    39    39
   58    13    13
   59     4     4
   60    44    44
   61    45    45
   62    36    36
   63    41    41
   64     5     5
   65    25    25
   66     5     5
   67    14    14
   68    12    12
   69    45    45
   70    41    41
   71    12    12
   72    20    20
   73    49    49
   74    50    50
   75    18    18
   76    50    50
   77    37    37
   78    14    14
   79    26    26
   80    47    47
   81    16    16
   82    13    13
   83    23    23
   84    45    45
   85    47    47
   86    39    39
   87     9     9
   88    48    48
   89    16    16
   90     4     4
   91    44    44
   92    18    18
   93    45    45
   94     8     8
   95    29    29
   96    34    34
   97    16    16
   98    28    28
   99     7     7
  100    27    27
1743
